NAME : rnd64_20.tsp
TYPE : TSP
DIMENSION : 20
EDGE_WEIGHT_TYPE : EUC_2D
NODE_COORD_SECTION
0 183 783
1 990 43
2 34 235
3 497 131
4 305 770
5 763 311
6 567 186
7 756 69
8 891 119
9 13 702
10 381 202
11 498 488
12 215 914
13 755 241
14 947 18
15 648 845
16 590 344
17 202 114
18 196 566
19 188 193
